102
0 85 58 90 48 97 63 20 74 72 
75 60 39 71 51 86 17 81 77 29 
24 1 94 22 4 35 36 42 61 14 
19 91 66 8 83 30 96 92 33 28 
47 32 41 69 7 76 80 100 43 31 
95 44 16 87 26 65 73 59 62 10 
37 101 49 52 18 34 45 12 99 38 
9 84 3 64 6 78 40 54 46 70 
50 68 55 21 88 98 53 56 23 79 
67 82 57 89 27 5 15 13 93 2 
11 25 
